NAME : portgen-18-64
COMMENT : portgen N=18, seed=64
TYPE : TSP
DIMENSION : 18
EDGE_WEIGHT_TYPE : EUC_2D
NODE_COORD_SECTION
1 52575 717250
2 895941 401458
3 715813 340704
4 551527 580493
5 571827 367792
6 570137 830055
7 51213 320464
8 189513 343703
9 138240 633725
10 445911 704324
11 378710 841771
12 811588 967277
13 370897 124520
14 324858 452817
15 189429 87887
16 348884 952336
17 868532 127807
18 489564 477812
